
Gurobi 7.0.2 (linux64) logging started Mon Jun 12 10:39:27 2017

Changed value of parameter logfile to result/NEIS-20170612T0949/scenario_300000PVS30PVWE10var-cost0050.log
   Prev: gurobi.log  Default: 
Optimize a model with 1059933 rows, 937229 columns and 3979188 nonzeros
Coefficient statistics:
  Matrix range     [8e-04, 1e+05]
  Objective range  [1e+00, 1e+00]
  Bounds range     [0e+00, 0e+00]
  RHS range        [3e-03, 3e+05]

Concurrent LP optimizer: primal simplex, dual simplex, and barrier
Showing barrier log only...

Presolve removed 594694 rows and 643281 columns
Presolve time: 3.08s
Presolved: 465239 rows, 293948 columns, 1347043 nonzeros

Ordering time: 0.42s

Barrier statistics:
 Dense cols : 21
 AA' NZ     : 1.881e+06
 Factor NZ  : 6.959e+06 (roughly 400 MBytes of memory)
 Factor Ops : 1.640e+08 (less than 1 second per iteration)
 Threads    : 22

                  Objective                Residual
Iter       Primal          Dual         Primal    Dual     Compl     Time
   0   3.86494537e+11 -2.66568326e+11  9.53e+02 6.93e+03  2.20e+07     5s
   1   3.06050271e+11 -9.70144516e+10  6.93e+02 1.33e+04  7.03e+06     5s
   2   2.98778210e+11 -6.90239752e+10  6.86e+02 8.97e+03  5.68e+06     6s
   3   2.08024887e+11 -1.19290555e+11  4.79e+02 1.96e+03  5.34e+06     6s
   4   3.81333550e+10 -1.16938871e+11  6.22e+01 1.55e+02  8.38e+05     7s
   5   4.15313068e+09 -6.10740975e+10  5.48e+00 2.48e+00  1.31e+05     7s
   6   4.68196383e+08 -1.69936067e+10  2.73e-01 8.60e-06  2.51e+04     8s
   7   2.42607792e+08 -2.39026523e+09  3.45e-02 1.90e-06  3.66e+03     8s
   8   1.25683643e+08 -7.56905095e+08  2.10e-03 7.22e-07  1.22e+03     9s
   9   8.91678378e+07 -7.03537943e+07  5.47e-04 2.12e-07  2.20e+02     9s
  10   7.88639640e+07 -5.53665180e+07  4.38e-04 1.71e-07  1.85e+02    10s
  11   7.36705084e+07 -4.46748663e+07  3.87e-04 1.51e-07  1.63e+02    10s
  12   6.79748247e+07 -1.84141220e+07  3.40e-04 1.04e-07  1.19e+02    11s
  13   4.21895524e+07 -2.98576310e+06  1.90e-04 5.40e-08  6.24e+01    11s
  14   3.08961539e+07  8.72139187e+06  1.13e-04 1.17e-08  3.06e+01    11s
  15   2.77913924e+07  9.89546814e+06  9.34e-05 8.96e-09  2.47e+01    12s
  16   2.27990998e+07  1.11228929e+07  6.15e-05 6.00e-09  1.61e+01    12s
  17   2.09525845e+07  1.17826998e+07  4.98e-05 1.50e-09  1.27e+01    13s
  18   1.77260372e+07  1.21889569e+07  2.81e-05 9.12e-10  7.65e+00    14s
  19   1.67684179e+07  1.24224332e+07  2.17e-05 7.35e-10  6.00e+00    14s
  20   1.63325928e+07  1.26358834e+07  1.87e-05 7.79e-10  5.10e+00    14s
  21   1.56742040e+07  1.29208606e+07  1.41e-05 2.44e-09  3.80e+00    15s
  22   1.53245072e+07  1.30801158e+07  1.17e-05 2.87e-10  3.10e+00    15s
  23   1.49114837e+07  1.32432104e+07  8.82e-06 2.56e-09  2.30e+00    16s
  24   1.45650645e+07  1.33769415e+07  6.51e-06 2.56e-09  1.64e+00    16s
  25   1.42794675e+07  1.34578876e+07  4.62e-06 9.20e-09  1.13e+00    17s
  26   1.41012646e+07  1.34958205e+07  3.46e-06 9.14e-09  8.36e-01    17s
  27   1.40211760e+07  1.35163475e+07  2.88e-06 1.01e-08  6.97e-01    18s
  28   1.39236035e+07  1.35337324e+07  2.17e-06 1.26e-08  5.38e-01    18s
  29   1.38840522e+07  1.35494382e+07  1.89e-06 1.08e-08  4.62e-01    19s
  30   1.38124780e+07  1.35616636e+07  1.40e-06 1.47e-08  3.46e-01    19s
  31   1.37776505e+07  1.35721600e+07  1.14e-06 1.64e-08  2.84e-01    19s
  32   1.37337922e+07  1.35831041e+07  8.26e-07 1.11e-08  2.08e-01    20s
  33   1.36977629e+07  1.35903670e+07  5.81e-07 1.46e-08  1.48e-01    21s
  34   1.36687436e+07  1.35963281e+07  3.82e-07 6.46e-09  1.00e-01    21s
  35   1.36640941e+07  1.35992453e+07  3.50e-07 6.00e-09  8.96e-02    22s
  36   1.36546980e+07  1.36013714e+07  2.85e-07 5.94e-09  7.36e-02    22s
  37   1.36489267e+07  1.36018814e+07  2.47e-07 5.65e-09  6.50e-02    22s
  38   1.36433054e+07  1.36042636e+07  2.10e-07 5.82e-09  5.39e-02    23s
  39   1.36361539e+07  1.36054533e+07  1.61e-07 7.10e-09  4.24e-02    23s
  40   1.36314393e+07  1.36068684e+07  1.30e-07 1.05e-08  3.39e-02    24s
  41   1.36259793e+07  1.36085159e+07  9.43e-08 1.25e-08  2.41e-02    24s
  42   1.36219836e+07  1.36089886e+07  6.99e-08 5.70e-09  1.79e-02    25s
  43   1.36191282e+07  1.36092876e+07  4.96e-08 7.68e-09  1.36e-02    25s
  44   1.36180980e+07  1.36098711e+07  4.21e-08 4.77e-09  1.14e-02    26s
  45   1.36177301e+07  1.36099167e+07  3.96e-08 5.65e-09  1.08e-02    26s
  46   1.36170208e+07  1.36105170e+07  3.48e-08 1.98e-09  8.98e-03    27s
  47   1.36169043e+07  1.36105404e+07  3.40e-08 3.14e-09  8.79e-03    27s
  48   1.36165647e+07  1.36108144e+07  3.17e-08 3.73e-09  7.94e-03    28s
  49   1.36149180e+07  1.36109462e+07  2.03e-08 3.14e-09  5.48e-03    28s
  50   1.36146678e+07  1.36110708e+07  1.87e-08 6.55e-10  4.97e-03    29s
  51   1.36144702e+07  1.36111501e+07  1.73e-08 3.64e-10  4.58e-03    29s
  52   1.36143354e+07  1.36111844e+07  1.64e-08 8.95e-10  4.35e-03    30s
  53   1.36140605e+07  1.36113266e+07  1.44e-08 3.27e-09  3.78e-03    30s
  54   1.36138755e+07  1.36113986e+07  1.32e-08 7.33e-09  3.42e-03    30s
  55   1.36134853e+07  1.36114496e+07  1.06e-08 1.12e-08  2.81e-03    31s
  56   1.36131418e+07  1.36114805e+07  8.43e-09 1.11e-08  2.29e-03    31s
  57   1.36130910e+07  1.36115375e+07  8.10e-09 1.05e-08  2.15e-03    32s
  58   1.36129972e+07  1.36115571e+07  7.50e-09 7.95e-09  1.99e-03    33s
  59   1.36128843e+07  1.36116117e+07  6.71e-09 8.19e-09  1.76e-03    33s
  60   1.36127574e+07  1.36116442e+07  5.86e-09 7.89e-09  1.54e-03    33s
  61   1.36126171e+07  1.36116801e+07  4.92e-09 6.48e-09  1.29e-03    34s
  62   1.36125622e+07  1.36117213e+07  4.55e-09 5.03e-09  1.16e-03    34s
  63   1.36125349e+07  1.36117375e+07  4.37e-09 1.04e-08  1.10e-03    35s
  64   1.36125041e+07  1.36117432e+07  4.18e-09 1.23e-08  1.05e-03    35s
  65   1.36124452e+07  1.36117682e+07  3.77e-09 1.36e-08  9.35e-04    36s
  66   1.36123030e+07  1.36117846e+07  2.86e-09 8.05e-09  7.16e-04    36s
  67   1.36122514e+07  1.36118029e+07  2.50e-09 5.91e-09  6.19e-04    37s
  68   1.36121976e+07  1.36118122e+07  2.13e-09 5.38e-09  5.32e-04    37s
  69   1.36121449e+07  1.36118282e+07  1.77e-09 4.07e-09  4.37e-04    38s
  70   1.36121045e+07  1.36118447e+07  1.52e-09 2.71e-09  3.59e-04    39s
  71   1.36120463e+07  1.36118557e+07  1.16e-09 2.74e-09  2.63e-04    40s
  72   1.36120430e+07  1.36118574e+07  1.13e-09 1.72e-09  2.56e-04    41s
  73   1.36120406e+07  1.36118616e+07  1.12e-09 1.02e-09  2.47e-04    41s
  74   1.36120002e+07  1.36118622e+07  8.38e-10 1.14e-09  1.90e-04    42s
  75   1.36119947e+07  1.36118629e+07  8.00e-10 1.34e-09  1.82e-04    43s
  76   1.36119924e+07  1.36118647e+07  7.84e-10 9.02e-10  1.76e-04    43s
  77   1.36119838e+07  1.36118659e+07  7.27e-10 6.33e-10  1.63e-04    44s
  78   1.36119767e+07  1.36118668e+07  2.66e-09 1.67e-08  1.52e-04    45s
  79   1.36119690e+07  1.36118674e+07  1.73e-07 3.92e-08  1.40e-04    46s
  80   1.36119657e+07  1.36118681e+07  1.66e-07 1.28e-07  1.35e-04    46s
  81   1.36119575e+07  1.36118690e+07  1.50e-07 6.25e-08  1.22e-04    47s
  82   1.36119503e+07  1.36118697e+07  1.32e-06 4.80e-08  1.11e-04    48s
  83   1.36119396e+07  1.36118710e+07  1.12e-06 3.09e-08  9.47e-05    48s
  84   1.36119394e+07  1.36118711e+07  1.12e-06 3.33e-08  9.43e-05    49s
  85   1.36119295e+07  1.36118725e+07  9.71e-07 2.19e-07  7.86e-05    50s
  86   1.36119248e+07  1.36118731e+07  8.81e-07 7.45e-08  7.13e-05    50s
  87   1.36119219e+07  1.36118733e+07  8.27e-07 1.72e-07  6.70e-05    51s
  88   1.36119149e+07  1.36118740e+07  1.02e-06 4.60e-07  5.63e-05    52s
  89   1.36119027e+07  1.36118743e+07  7.90e-07 5.26e-07  3.92e-05    52s
  90   1.36119007e+07  1.36118746e+07  7.27e-07 3.87e-07  3.60e-05    53s
  91   1.36119007e+07  1.36118746e+07  1.72e-06 3.87e-07  3.60e-05    54s
  92   1.36118998e+07  1.36118747e+07  1.64e-06 3.42e-07  3.46e-05    55s
  93   1.36118995e+07  1.36118748e+07  1.62e-06 2.70e-09  3.41e-05    55s
  94   1.36118995e+07  1.36118748e+07  1.62e-06 2.74e-09  3.41e-05    56s
  95   1.36118995e+07  1.36118748e+07  1.62e-06 2.82e-09  3.41e-05    57s
  96   1.36118995e+07  1.36118748e+07  1.21e-06 3.35e-10  3.41e-05    58s
  97   6.63667590e+11 -2.66568326e+11  2.34e+03 6.93e+03  5.31e+07    59s
  98   4.92449947e+11 -3.69246917e+11  1.52e+03 1.47e+03  1.42e+07    61s
  99   5.66553989e+10 -1.52873519e+11  5.76e+00 2.03e+01  3.39e+05    62s
 100   1.29301715e+09 -1.42196265e+10  4.41e-02 1.79e-04  2.16e+04    62s
 101   1.98477315e+08 -3.79292524e+08  1.29e-04 9.60e-06  7.98e+02    63s
 102   9.00095377e+07 -3.23101934e+07  2.58e-05 1.03e-06  1.69e+02    64s
 103   4.51339823e+07 -1.89824257e+07  3.03e-06 8.19e-07  8.85e+01    65s
 104   2.63414978e+07 -5.10140191e+06  9.43e-07 4.49e-07  4.34e+01    66s
 105   2.44009045e+07  5.09679401e+06  7.82e-07 1.94e-07  2.67e+01    66s
 106   1.98223303e+07  9.03391358e+06  4.41e-07 1.07e-07  1.49e+01    67s
 107   1.74463083e+07  1.09466044e+07  2.65e-07 6.01e-08  8.98e+00    67s
 108   1.66274512e+07  1.17897841e+07  2.07e-07 4.08e-08  6.68e+00    67s
 109   1.59722733e+07  1.20841183e+07  1.61e-07 3.35e-08  5.37e+00    68s
 110   1.54422793e+07  1.25319148e+07  1.26e-07 2.27e-08  4.02e+00    68s
 111   1.51740982e+07  1.27739314e+07  1.09e-07 1.69e-08  3.31e+00    69s
 112   1.51289849e+07  1.28445733e+07  1.05e-07 1.54e-08  3.15e+00    69s
 113   1.45975794e+07  1.30671953e+07  6.80e-08 1.04e-08  2.11e+00    69s
 114   1.42482455e+07  1.31910314e+07  4.35e-08 7.83e-09  1.46e+00    70s
 115   1.40990548e+07  1.32761382e+07  3.29e-08 6.15e-09  1.14e+00    70s
 116   1.40039007e+07  1.33743545e+07  2.62e-08 4.39e-09  8.69e-01    70s
 117   1.38655461e+07  1.34533458e+07  1.67e-08 2.85e-09  5.69e-01    71s
 118   1.38458797e+07  1.34890054e+07  1.54e-08 1.04e-08  4.93e-01    71s
 119   1.37779315e+07  1.35233371e+07  1.09e-08 1.04e-08  3.52e-01    72s
 120   1.37296541e+07  1.35504546e+07  7.75e-09 1.23e-08  2.47e-01    72s
 121   1.36854976e+07  1.35672978e+07  4.77e-09 1.36e-08  1.63e-01    72s
 122   1.36643345e+07  1.35800372e+07  3.36e-09 1.09e-08  1.16e-01    73s
 123   1.36498933e+07  1.35891861e+07  2.41e-09 1.47e-08  8.38e-02    73s
 124   1.36385172e+07  1.35941913e+07  1.68e-09 1.03e-08  6.12e-02    74s
 125   1.36331354e+07  1.35991099e+07  1.33e-09 5.06e-09  4.70e-02    74s
 126   1.36310113e+07  1.35996748e+07  1.20e-09 6.58e-09  4.33e-02    74s
 127   1.36293655e+07  1.36010577e+07  1.10e-09 6.64e-09  3.91e-02    75s
 128   1.36233368e+07  1.36031185e+07  7.20e-10 4.48e-09  2.79e-02    75s
 129   1.36214432e+07  1.36056720e+07  6.04e-10 1.02e-08  2.18e-02    76s
 130   1.36193674e+07  1.36073450e+07  4.69e-10 1.01e-08  1.66e-02    76s
 131   1.36188679e+07  1.36076420e+07  4.36e-10 1.01e-08  1.55e-02    76s
 132   1.36179017e+07  1.36080311e+07  3.74e-10 7.22e-09  1.36e-02    77s
 133   1.36174207e+07  1.36084949e+07  3.44e-10 9.20e-09  1.23e-02    77s
 134   1.36161125e+07  1.36094650e+07  2.64e-10 2.69e-08  9.18e-03    78s
 135   1.36152968e+07  1.36102214e+07  2.37e-10 3.20e-08  7.01e-03    78s
 136   1.36144955e+07  1.36106545e+07  1.83e-10 1.21e-08  5.30e-03    78s
 137   1.36142104e+07  1.36106903e+07  1.66e-10 1.18e-08  4.86e-03    79s
 138   1.36138905e+07  1.36110201e+07  1.44e-10 1.07e-08  3.96e-03    79s
 139   1.36137167e+07  1.36110528e+07  1.36e-10 1.09e-08  3.68e-03    79s
 140   1.36136374e+07  1.36111266e+07  1.29e-10 1.13e-08  3.47e-03    80s
 141   1.36133520e+07  1.36112383e+07  1.16e-10 1.14e-08  2.92e-03    80s
 142   1.36131349e+07  1.36113406e+07  9.27e-11 1.12e-08  2.48e-03    81s
 143   1.36129068e+07  1.36113719e+07  1.24e-10 1.10e-08  2.12e-03    81s
 144   1.36128278e+07  1.36114435e+07  1.21e-10 1.16e-08  1.91e-03    81s
 145   1.36127730e+07  1.36114882e+07  1.09e-10 1.16e-08  1.77e-03    82s
 146   1.36126717e+07  1.36115842e+07  1.01e-10 1.17e-08  1.50e-03    82s
 147   1.36126204e+07  1.36116257e+07  9.48e-11 1.27e-08  1.37e-03    83s
 148   1.36125648e+07  1.36116703e+07  8.70e-11 1.06e-08  1.24e-03    83s
 149   1.36124229e+07  1.36117218e+07  7.95e-11 7.51e-09  9.68e-04    84s
 150   1.36123208e+07  1.36117552e+07  6.45e-11 5.20e-09  7.81e-04    84s
 151   1.36122840e+07  1.36117845e+07  5.91e-11 4.00e-09  6.90e-04    85s
 152   1.36122624e+07  1.36118086e+07  5.60e-11 2.88e-09  6.27e-04    85s
 153   1.36121597e+07  1.36118246e+07  4.10e-11 2.08e-09  4.63e-04    86s
 154   1.36121265e+07  1.36118289e+07  3.52e-11 2.62e-09  4.11e-04    86s
 155   1.36121009e+07  1.36118386e+07  3.16e-11 1.80e-09  3.62e-04    87s
 156   1.36120814e+07  1.36118450e+07  2.87e-11 1.06e-09  3.26e-04    88s
 157   1.36120624e+07  1.36118468e+07  2.61e-11 1.48e-09  2.98e-04    88s
 158   1.36120385e+07  1.36118573e+07  2.28e-11 5.24e-10  2.50e-04    89s
 159   1.36119966e+07  1.36118585e+07  1.70e-11 7.86e-10  1.91e-04    90s
 160   1.36119806e+07  1.36118654e+07  1.54e-11 4.15e-10  1.59e-04    90s
 161   1.36119594e+07  1.36118685e+07  2.15e-07 2.81e-09  1.26e-04    91s
 162   1.36119519e+07  1.36118719e+07  1.92e-07 6.79e-07  1.11e-04    91s
 163   1.36119360e+07  1.36118722e+07  1.50e-07 7.09e-07  8.80e-05    92s
 164   1.36119315e+07  1.36118728e+07  1.92e-06 7.76e-07  8.11e-05    93s
 165   1.36119310e+07  1.36118729e+07  1.91e-06 7.49e-07  8.02e-05    93s
 166   1.36119252e+07  1.36118736e+07  2.01e-06 3.57e-07  7.12e-05    94s
 167   1.36119203e+07  1.36118745e+07  1.77e-06 5.25e-09  6.33e-05    95s
 168   1.36119145e+07  1.36118746e+07  1.52e-06 5.30e-09  5.50e-05    96s
 169   1.36119141e+07  1.36118747e+07  1.50e-06 5.07e-09  5.44e-05    96s
 170   1.36119116e+07  1.36118749e+07  1.40e-06 4.02e-09  5.07e-05    97s
 171   1.36119059e+07  1.36118766e+07  1.16e-06 3.20e-09  4.05e-05    98s
 172   1.36119059e+07  1.36118766e+07  1.16e-06 6.52e-09  4.05e-05    98s
 173   1.36119059e+07  1.36118766e+07  1.16e-06 5.06e-09  4.05e-05    99s
 174   1.36119059e+07  1.36118766e+07  1.16e-06 6.98e-10  4.04e-05   100s
 175   1.36119058e+07  1.36118766e+07  1.16e-06 5.38e-10  4.03e-05   101s
 176   1.36119057e+07  1.36118766e+07  1.70e-06 5.82e-10  4.02e-05   101s
 177   1.36119057e+07  1.36118766e+07  1.90e-06 3.93e-10  4.02e-05   102s
 178   1.36119057e+07  1.36118766e+07  1.90e-06 4.51e-10  4.01e-05   103s
 179   1.36119057e+07  1.36118766e+07  1.89e-06 4.37e-10  4.01e-05   104s
 180   1.36119057e+07  1.36118766e+07  1.89e-06 6.26e-10  4.01e-05   105s
 181   1.36119057e+07  1.36118766e+07  3.19e-06 7.42e-10  4.01e-05   106s

Barrier performed 181 iterations in 105.68 seconds
Sub-optimal termination - objective 1.36119027e+07

Crossover log...

  185192 DPushes remaining with DInf 0.0000000e+00               106s
   49705 DPushes remaining with DInf 0.0000000e+00               110s
   42229 DPushes remaining with DInf 0.0000000e+00               115s
   36533 DPushes remaining with DInf 0.0000000e+00               120s
   31549 DPushes remaining with DInf 0.0000000e+00               125s
   25141 DPushes remaining with DInf 0.0000000e+00               130s
   17665 DPushes remaining with DInf 0.0000000e+00               135s
   10520 DPushes remaining with DInf 0.0000000e+00               140s
    6151 DPushes remaining with DInf 0.0000000e+00               146s
    4717 DPushes remaining with DInf 0.0000000e+00               151s
       0 DPushes remaining with DInf 1.6688462e-09               154s

  169960 PPushes remaining with PInf 1.2652590e-02               155s
   35950 PPushes remaining with PInf 1.9835878e-01               156s
       0 PPushes remaining with PInf 0.0000000e+00               158s

  Push phase complete: Pinf 0.0000000e+00, Dinf 6.8174826e+03    158s

Iteration    Objective       Primal Inf.    Dual Inf.      Time
  354506    1.3611878e+07   0.000000e+00   6.817483e+03    158s
  355208    1.3611878e+07   0.000000e+00   0.000000e+00    161s

Solved with barrier
Solved in 355208 iterations and 160.87 seconds
Optimal objective  1.361187824e+07
Warning: unscaled primal violation = 1.14432e-06 and residual = 1.14432e-06
